certificates/rado_a11_c61_N35.drat
3 -35 0
6 -35 0
-35 0
8 0
-6 0
1 0
11 0
30 0
-28 0
-5 0
-3 0
33 0
34 0
23 0
22 0
10 0
12 0
9 0
29 0
31 0
7 0
0
